(set-logic ALL_SUPPORTED)
(set-option :produce-models true)
(declare-fun SetToCheckUA () (Set (Tuple Int Int)))
(assert (= SetToCheckUA (insert (mkTuple 37 37) 
(mkTuple 41 41) 
(mkTuple 30 30) 
(mkTuple 26 26) 
(mkTuple 15 15) 
(mkTuple 2 2) 
(mkTuple 33 33) 
(mkTuple 3 3) 
(mkTuple 18 18) 
(mkTuple 11 11) 
(mkTuple 1 1) 
(mkTuple 25 25) 
(mkTuple 14 14) 
(mkTuple 44 44) 
(mkTuple 17 17) 
(mkTuple 21 21) 
(mkTuple 10 10) 
(mkTuple 40 40) 
(mkTuple 36 36) 
(mkTuple 24 24) 
(mkTuple 13 13) 
(mkTuple 39 39) 
(mkTuple 28 28) 
(mkTuple 32 32) 
(mkTuple 16 16) 
(mkTuple 20 20) 
(mkTuple 46 46) 
(mkTuple 35 35) 
(mkTuple 12 12) 
(mkTuple 5 5) 
(mkTuple 38 38) 
(mkTuple 42 42) 
(mkTuple 4 4) 
(mkTuple 7 7) 
(mkTuple 27 27) 
(mkTuple 31 31) 
(mkTuple 6 6) 
(mkTuple 45 45) 
(mkTuple 8 8) 
(mkTuple 9 9) 
(mkTuple 34 34) 
(mkTuple 19 19) 
(singleton (mkTuple 23 23)))))
(declare-fun SetToCheckAT () (Set (Tuple Int Int)))
(assert (= SetToCheckAT (insert (mkTuple 43 43) 
(singleton (mkTuple 29 29)))))
(declare-fun GRAPH0 () (Set (Tuple Int Int)))
(assert (= GRAPH0 (insert (mkTuple 37 39) 
(mkTuple 13 36) 
(mkTuple 5 4) 
(mkTuple 36 22) 
(mkTuple 36 10) 
(mkTuple 44 46) 
(mkTuple 19 4) 
(mkTuple 44 22) 
(mkTuple 44 34) 
(mkTuple 21 35) 
(mkTuple 44 10) 
(mkTuple 20 4) 
(mkTuple 21 11) 
(mkTuple 44 1) 
(mkTuple 45 38) 
(mkTuple 21 1) 
(mkTuple 13 35) 
(mkTuple 43 43) 
(mkTuple 5 22) 
(mkTuple 19 3) 
(mkTuple 19 41) 
(mkTuple 5 2) 
(mkTuple 13 11) 
(mkTuple 28 22) 
(mkTuple 5 3) 
(mkTuple 44 35) 
(mkTuple 44 11) 
(mkTuple 5 35) 
(mkTuple 21 34) 
(mkTuple 21 46) 
(mkTuple 21 10) 
(mkTuple 20 5) 
(mkTuple 21 22) 
(mkTuple 45 39) 
(mkTuple 21 2) 
(mkTuple 13 46) 
(mkTuple 20 41) 
(mkTuple 19 2) 
(mkTuple 19 20) 
(mkTuple 33 1) 
(mkTuple 13 22) 
(mkTuple 5 1) 
(mkTuple 13 34) 
(mkTuple 13 10) 
(mkTuple 14 14) 
(mkTuple 17 8) 
(mkTuple 44 36) 
(mkTuple 18 5) 
(mkTuple 19 44) 
(mkTuple 21 45) 
(mkTuple 44 3) 
(mkTuple 21 21) 
(mkTuple 21 33) 
(mkTuple 21 3) 
(mkTuple 4 22) 
(mkTuple 18 4) 
(mkTuple 33 2) 
(mkTuple 19 1) 
(mkTuple 13 33) 
(mkTuple 13 45) 
(mkTuple 13 21) 
(mkTuple 44 37) 
(mkTuple 4 4) 
(mkTuple 21 20) 
(mkTuple 44 2) 
(mkTuple 21 44) 
(mkTuple 21 4) 
(mkTuple 13 16) 
(mkTuple 15 17) 
(mkTuple 10 3) 
(mkTuple 4 2) 
(mkTuple 46 39) 
(mkTuple 19 8) 
(mkTuple 45 10) 
(mkTuple 45 22) 
(mkTuple 45 34) 
(mkTuple 27 22) 
(mkTuple 15 18) 
(mkTuple 13 39) 
(mkTuple 46 38) 
(mkTuple 3 4) 
(mkTuple 4 1) 
(mkTuple 10 2) 
(mkTuple 12 12) 
(mkTuple 36 41) 
(mkTuple 6 22) 
(mkTuple 45 11) 
(mkTuple 41 5) 
(mkTuple 45 35) 
(mkTuple 20 1) 
(mkTuple 13 38) 
(mkTuple 15 19) 
(mkTuple 29 29) 
(mkTuple 3 3) 
(mkTuple 10 1) 
(mkTuple 21 41) 
(mkTuple 44 44) 
(mkTuple 41 8) 
(mkTuple 20 2) 
(mkTuple 45 36) 
(mkTuple 13 37) 
(mkTuple 13 13) 
(mkTuple 3 2) 
(mkTuple 26 41) 
(mkTuple 18 8) 
(mkTuple 44 33) 
(mkTuple 19 5) 
(mkTuple 44 45) 
(mkTuple 20 3) 
(mkTuple 45 37) 
(mkTuple 12 22) 
(mkTuple 41 41) 
(mkTuple 33 41) 
(mkTuple 39 5) 
(mkTuple 15 37) 
(mkTuple 3 1) 
(mkTuple 15 13) 
(mkTuple 16 5) 
(mkTuple 17 2) 
(mkTuple 34 33) 
(mkTuple 15 8) 
(mkTuple 38 11) 
(mkTuple 38 8) 
(mkTuple 41 2) 
(mkTuple 38 35) 
(mkTuple 39 39) 
(mkTuple 15 38) 
(mkTuple 16 4) 
(mkTuple 16 18) 
(mkTuple 17 1) 
(mkTuple 20 38) 
(mkTuple 20 39) 
(mkTuple 34 22) 
(mkTuple 34 10) 
(mkTuple 34 34) 
(mkTuple 41 1) 
(mkTuple 7 22) 
(mkTuple 15 39) 
(mkTuple 15 15) 
(mkTuple 2 2) 
(mkTuple 16 3) 
(mkTuple 16 19) 
(mkTuple 22 22) 
(mkTuple 20 37) 
(mkTuple 41 4) 
(mkTuple 14 42) 
(mkTuple 15 5) 
(mkTuple 15 16) 
(mkTuple 37 10) 
(mkTuple 16 2) 
(mkTuple 37 22) 
(mkTuple 35 35) 
(mkTuple 20 36) 
(mkTuple 38 38) 
(mkTuple 42 42) 
(mkTuple 39 8) 
(mkTuple 41 3) 
(mkTuple 36 39) 
(mkTuple 39 1) 
(mkTuple 35 22) 
(mkTuple 43 22) 
(mkTuple 16 37) 
(mkTuple 38 4) 
(mkTuple 18 3) 
(mkTuple 15 33) 
(mkTuple 20 11) 
(mkTuple 15 45) 
(mkTuple 13 44) 
(mkTuple 20 35) 
(mkTuple 37 11) 
(mkTuple 15 21) 
(mkTuple 13 20) 
(mkTuple 37 35) 
(mkTuple 44 38) 
(mkTuple 34 41) 
(mkTuple 17 17) 
(mkTuple 21 39) 
(mkTuple 36 38) 
(mkTuple 40 40) 
(mkTuple 29 22) 
(mkTuple 38 5) 
(mkTuple 39 2) 
(mkTuple 15 46) 
(mkTuple 16 38) 
(mkTuple 17 5) 
(mkTuple 20 10) 
(mkTuple 15 22) 
(mkTuple 20 22) 
(mkTuple 15 34) 
(mkTuple 18 2) 
(mkTuple 20 34) 
(mkTuple 20 46) 
(mkTuple 15 10) 
(mkTuple 1 2) 
(mkTuple 37 36) 
(mkTuple 44 39) 
(mkTuple 16 8) 
(mkTuple 17 18) 
(mkTuple 37 8) 
(mkTuple 21 38) 
(mkTuple 37 37) 
(mkTuple 39 3) 
(mkTuple 15 35) 
(mkTuple 16 39) 
(mkTuple 17 4) 
(mkTuple 26 8) 
(mkTuple 15 11) 
(mkTuple 18 1) 
(mkTuple 20 33) 
(mkTuple 20 45) 
(mkTuple 1 1) 
(mkTuple 8 22) 
(mkTuple 17 19) 
(mkTuple 14 22) 
(mkTuple 36 36) 
(mkTuple 21 37) 
(mkTuple 37 38) 
(mkTuple 39 4) 
(mkTuple 16 16) 
(mkTuple 20 20) 
(mkTuple 13 41) 
(mkTuple 15 36) 
(mkTuple 17 3) 
(mkTuple 20 44) 
(mkTuple 8 35) 
(mkTuple 36 35) 
(mkTuple 42 22) 
(mkTuple 36 11) 
(mkTuple 9 9) 
(mkTuple 21 36) 
(mkTuple 26 18) 
(mkTuple 37 3) 
(mkTuple 16 21) 
(mkTuple 16 33) 
(mkTuple 16 45) 
(mkTuple 18 18) 
(mkTuple 33 37) 
(mkTuple 15 41) 
(mkTuple 25 37) 
(mkTuple 25 25) 
(mkTuple 1 22) 
(mkTuple 26 2) 
(mkTuple 17 37) 
(mkTuple 25 5) 
(mkTuple 25 13) 
(mkTuple 38 1) 
(mkTuple 13 5) 
(mkTuple 16 10) 
(mkTuple 16 22) 
(mkTuple 16 34) 
(mkTuple 16 46) 
(mkTuple 32 22) 
(mkTuple 26 19) 
(mkTuple 37 4) 
(mkTuple 33 38) 
(mkTuple 25 36) 
(mkTuple 26 3) 
(mkTuple 17 38) 
(mkTuple 38 2) 
(mkTuple 46 41) 
(mkTuple 26 16) 
(mkTuple 13 4) 
(mkTuple 16 11) 
(mkTuple 41 11) 
(mkTuple 36 8) 
(mkTuple 16 35) 
(mkTuple 41 35) 
(mkTuple 37 5) 
(mkTuple 33 11) 
(mkTuple 33 35) 
(mkTuple 39 10) 
(mkTuple 39 22) 
(mkTuple 25 15) 
(mkTuple 25 39) 
(mkTuple 26 4) 
(mkTuple 17 39) 
(mkTuple 38 41) 
(mkTuple 9 22) 
(mkTuple 34 39) 
(mkTuple 13 3) 
(mkTuple 26 17) 
(mkTuple 41 10) 
(mkTuple 41 22) 
(mkTuple 16 36) 
(mkTuple 38 3) 
(mkTuple 32 32) 
(mkTuple 2 35) 
(mkTuple 15 44) 
(mkTuple 33 36) 
(mkTuple 15 20) 
(mkTuple 24 22) 
(mkTuple 25 38) 
(mkTuple 26 5) 
(mkTuple 17 16) 
(mkTuple 25 8) 
(mkTuple 8 8) 
(mkTuple 16 41) 
(mkTuple 34 8) 
(mkTuple 18 38) 
(mkTuple 36 2) 
(mkTuple 15 4) 
(mkTuple 33 33) 
(mkTuple 16 1) 
(mkTuple 17 33) 
(mkTuple 17 45) 
(mkTuple 19 18) 
(mkTuple 25 1) 
(mkTuple 25 17) 
(mkTuple 17 21) 
(mkTuple 34 37) 
(mkTuple 24 24) 
(mkTuple 18 37) 
(mkTuple 36 3) 
(mkTuple 15 3) 
(mkTuple 33 10) 
(mkTuple 39 35) 
(mkTuple 33 22) 
(mkTuple 39 11) 
(mkTuple 17 22) 
(mkTuple 17 34) 
(mkTuple 17 10) 
(mkTuple 25 2) 
(mkTuple 25 16) 
(mkTuple 17 46) 
(mkTuple 34 38) 
(mkTuple 36 4) 
(mkTuple 15 2) 
(mkTuple 37 1) 
(mkTuple 13 8) 
(mkTuple 37 41) 
(mkTuple 39 38) 
(mkTuple 17 11) 
(mkTuple 25 3) 
(mkTuple 23 22) 
(mkTuple 25 19) 
(mkTuple 34 11) 
(mkTuple 17 35) 
(mkTuple 34 35) 
(mkTuple 40 22) 
(mkTuple 15 1) 
(mkTuple 16 20) 
(mkTuple 37 2) 
(mkTuple 16 44) 
(mkTuple 18 39) 
(mkTuple 36 5) 
(mkTuple 26 1) 
(mkTuple 25 4) 
(mkTuple 46 8) 
(mkTuple 7 7) 
(mkTuple 1 35) 
(mkTuple 25 18) 
(mkTuple 8 4) 
(mkTuple 17 36) 
(mkTuple 38 10) 
(mkTuple 34 36) 
(mkTuple 38 22) 
(mkTuple 19 19) 
(mkTuple 23 23) 
(mkTuple 11 4) 
(mkTuple 18 10) 
(mkTuple 46 11) 
(mkTuple 18 22) 
(mkTuple 34 4) 
(mkTuple 18 34) 
(mkTuple 18 46) 
(mkTuple 26 10) 
(mkTuple 46 35) 
(mkTuple 11 35) 
(mkTuple 17 41) 
(mkTuple 26 46) 
(mkTuple 26 34) 
(mkTuple 11 11) 
(mkTuple 26 22) 
(mkTuple 8 3) 
(mkTuple 19 38) 
(mkTuple 46 3) 
(mkTuple 3 35) 
(mkTuple 25 41) 
(mkTuple 33 8) 
(mkTuple 18 21) 
(mkTuple 46 22) 
(mkTuple 13 19) 
(mkTuple 18 33) 
(mkTuple 46 34) 
(mkTuple 18 45) 
(mkTuple 34 5) 
(mkTuple 46 10) 
(mkTuple 46 46) 
(mkTuple 11 3) 
(mkTuple 26 35) 
(mkTuple 26 11) 
(mkTuple 8 2) 
(mkTuple 19 37) 
(mkTuple 44 8) 
(mkTuple 27 27) 
(mkTuple 46 2) 
(mkTuple 45 5) 
(mkTuple 18 36) 
(mkTuple 30 22) 
(mkTuple 10 5) 
(mkTuple 13 18) 
(mkTuple 46 37) 
(mkTuple 26 20) 
(mkTuple 11 2) 
(mkTuple 26 44) 
(mkTuple 45 8) 
(mkTuple 8 1) 
(mkTuple 46 5) 
(mkTuple 36 1) 
(mkTuple 40 28) 
(mkTuple 18 11) 
(mkTuple 28 28) 
(mkTuple 13 17) 
(mkTuple 18 35) 
(mkTuple 26 21) 
(mkTuple 46 36) 
(mkTuple 10 4) 
(mkTuple 26 45) 
(mkTuple 11 22) 
(mkTuple 11 1) 
(mkTuple 26 33) 
(mkTuple 17 44) 
(mkTuple 19 39) 
(mkTuple 17 20) 
(mkTuple 6 6) 
(mkTuple 45 33) 
(mkTuple 46 4) 
(mkTuple 45 45) 
(mkTuple 44 41) 
(mkTuple 2 22) 
(mkTuple 13 2) 
(mkTuple 26 38) 
(mkTuple 26 26) 
(mkTuple 4 35) 
(mkTuple 11 8) 
(mkTuple 19 10) 
(mkTuple 33 3) 
(mkTuple 21 5) 
(mkTuple 19 46) 
(mkTuple 5 8) 
(mkTuple 19 22) 
(mkTuple 20 8) 
(mkTuple 19 34) 
(mkTuple 44 5) 
(mkTuple 45 2) 
(mkTuple 10 22) 
(mkTuple 25 33) 
(mkTuple 10 10) 
(mkTuple 25 21) 
(mkTuple 25 45) 
(mkTuple 26 39) 
(mkTuple 26 15) 
(mkTuple 33 4) 
(mkTuple 19 21) 
(mkTuple 34 1) 
(mkTuple 13 1) 
(mkTuple 31 31) 
(mkTuple 19 33) 
(mkTuple 44 4) 
(mkTuple 19 45) 
(mkTuple 18 41) 
(mkTuple 25 20) 
(mkTuple 45 1) 
(mkTuple 25 44) 
(mkTuple 30 30) 
(mkTuple 46 33) 
(mkTuple 18 44) 
(mkTuple 33 5) 
(mkTuple 46 45) 
(mkTuple 34 2) 
(mkTuple 26 36) 
(mkTuple 33 39) 
(mkTuple 45 4) 
(mkTuple 19 36) 
(mkTuple 31 22) 
(mkTuple 46 1) 
(mkTuple 18 20) 
(mkTuple 25 11) 
(mkTuple 25 35) 
(mkTuple 10 8) 
(mkTuple 11 5) 
(mkTuple 26 37) 
(mkTuple 34 3) 
(mkTuple 26 25) 
(mkTuple 26 13) 
(mkTuple 21 8) 
(mkTuple 5 5) 
(mkTuple 39 41) 
(mkTuple 3 22) 
(mkTuple 19 35) 
(mkTuple 45 41) 
(mkTuple 45 3) 
(mkTuple 19 11) 
(mkTuple 10 11) 
(mkTuple 25 22) 
(mkTuple 25 10) 
(mkTuple 10 35) 
(mkTuple 25 46) 
(singleton (mkTuple 25 34)))))
(declare-fun Associations (Int) (Set (Tuple Int Int Int)))

(assert (= (Associations 0) (insert(mkTuple 28 48 43) 
(singleton (mkTuple 42 60 43)))))

(declare-fun AssociationsForUA (Int) (Set (Tuple Int Int Int)))
(declare-fun UA_U_Reachability (Int) (Set (Tuple Int Int)))
(declare-fun AT_Reachability (Int) (Set (Tuple Int Int)))
(declare-fun AccessRights(Int) (Set (Tuple Int Int Int)))

(assert (= (UA_U_Reachability 0) (join SetToCheckUA GRAPH0)))
(assert (= (AT_Reachability 0) (join SetToCheckAT GRAPH0)))
(assert (= (AssociationsForUA 0) (join (UA_U_Reachability 0) (Associations 0))))
(assert (= (AccessRights 0) (join (AssociationsForUA 0) (transpose (AT_Reachability 0)))))

(declare-fun obligation1 (Int) Int)
(declare-fun obligation2 (Int) Int)
(declare-fun obligation3 (Int) Int)
(declare-fun obligation4 (Int) Int)
(declare-fun obligation5 (Int) Int)
(declare-fun obligation6 (Int) Int)
(declare-fun obligation7 (Int) Int)
(declare-fun obligation8 (Int) Int)
(declare-fun obligation9 (Int) Int)
(declare-fun obligation10 (Int) Int)
(declare-fun obligation11 (Int) Int)
(declare-fun obligation12 (Int) Int)
(declare-fun obligation13 (Int) Int)
;--------------------------------------------------------------------------------------------------------------------
;STEP1
(assert 
(xor 
(= (obligation1 0) 0) 
(and (member (mkTuple 42 60 43) (AccessRights 0)) (= (obligation1 0) 1))
)
)				
(assert 
(xor 
(= (obligation2 0) 0) 
(and (member (mkTuple 6 59 43) (AccessRights 0)) (= (obligation2 0) 1))
)
)				
(assert 
(xor 
(= (obligation3 0) 0) 
(and (member (mkTuple 12 59 43) (AccessRights 0)) (= (obligation3 0) 1))
)
)				
(assert 
(xor 
(= (obligation4 0) 0) 
(and (member (mkTuple 31 59 43) (AccessRights 0)) (= (obligation4 0) 1))
)
)				
(assert 
(xor 
(= (obligation5 0) 0) 
(and (member (mkTuple 32 60 43) (AccessRights 0)) (= (obligation5 0) 1))
)
)				
(assert 
(xor 
(= (obligation6 0) 0) 
(and (member (mkTuple 35 61 43) (AccessRights 0)) (= (obligation6 0) 1))
)
)				
(assert 
(xor 
(= (obligation7 0) 0) 
(and (member (mkTuple 23 59 43) (AccessRights 0)) (= (obligation7 0) 1))
)
)				
(assert 
(xor 
(= (obligation8 0) 0) 
(and (member (mkTuple 27 59 43) (AccessRights 0)) (= (obligation8 0) 1))
)
)				
(assert 
(xor 
(= (obligation9 0) 0) 
(and (member (mkTuple 30 59 43) (AccessRights 0)) (= (obligation9 0) 1))
)
)				
(assert 
(xor 
(= (obligation10 0) 0) 
(and (member (mkTuple 7 60 43) (AccessRights 0)) (= (obligation10 0) 1))
)
)				
(assert 
(xor 
(= (obligation11 0) 0) 
(and (member (mkTuple 9 61 43) (AccessRights 0)) (= (obligation11 0) 1))
)
)				
(assert 
(xor 
(= (obligation12 0) 0) 
(and (member (mkTuple 9 62 43) (AccessRights 0)) (= (obligation12 0) 1))
)
)				
(assert 
(xor 
(= (obligation13 0) 0) 
(and (member (mkTuple 7 64 43) (AccessRights 0)) (= (obligation13 0) 1))
)
)				


(assert (or 
(and (= (obligation1 0) 1)
(xor (= (Associations 1) 
(setminus (union  (Associations 0) (singleton(mkTuple 6 59 43))) (singleton(mkTuple 42 59 43))))
(= (Associations 1) (Associations 0))))

(and (= (obligation2 0) 1)
(xor (= (Associations 1) 
(setminus (union  (Associations 0) (singleton(mkTuple 12 59 43))) (singleton(mkTuple 6 59 43))))
(= (Associations 1) (Associations 0))))

(and (= (obligation3 0) 1)
(xor (= (Associations 1) 
(setminus (union  (Associations 0) (singleton(mkTuple 31 59 43))) (singleton(mkTuple 12 59 43))))
(= (Associations 1) (Associations 0))))

(and (= (obligation4 0) 1)
(xor (= (Associations 1) 
(setminus (union  (Associations 0) (singleton(mkTuple 32 60 43))) (singleton(mkTuple 31 59 43))))
(= (Associations 1) (Associations 0))))

(and (= (obligation5 0) 1)
(xor (= (Associations 1) 
(setminus (union  (Associations 0) (singleton(mkTuple 35 61 43))) (singleton(mkTuple 32 60 43))))
(= (Associations 1) (Associations 0))))

(and (= (obligation6 0) 1)
(xor (= (Associations 1) 
(setminus (union  (Associations 0) (singleton(mkTuple 23 59 43))) (singleton(mkTuple 35 61 43))))
(= (Associations 1) (Associations 0))))

(and (= (obligation7 0) 1)
(xor (= (Associations 1) 
(setminus (union  (Associations 0) (singleton(mkTuple 27 59 43))) (singleton(mkTuple 23 59 43))))
(= (Associations 1) (Associations 0))))

(and (= (obligation8 0) 1)
(xor (= (Associations 1) 
(setminus (union  (Associations 0) (singleton(mkTuple 30 59 43))) (singleton(mkTuple 27 59 43))))
(= (Associations 1) (Associations 0))))

(and (= (obligation9 0) 1)
(xor (= (Associations 1) 
(setminus (union  (Associations 0) (singleton(mkTuple 7 60 43))) (singleton(mkTuple 30 59 43))))
(= (Associations 1) (Associations 0))))

(and (= (obligation10 0) 1)
(xor (= (Associations 1) 
(setminus (union  (Associations 0) (singleton(mkTuple 9 61 43))) (singleton(mkTuple 7 59 43))))
(= (Associations 1) (Associations 0))))

(and (= (obligation11 0) 1)
(xor (= (Associations 1) 
(setminus (union  (Associations 0) (singleton(mkTuple 9 62 43))) (singleton(mkTuple 9 61 43))))
(= (Associations 1) (Associations 0))))

(and (= (obligation12 0) 1)
(xor (= (Associations 1) 
(setminus (union  (Associations 0) (singleton(mkTuple 7 64 43))) (singleton(mkTuple 9 62 43))))
(= (Associations 1) (Associations 0))))

(and (= (obligation13 0) 1)
(xor (= (Associations 1) 
(setminus (union  (Associations 0) (singleton(mkTuple 9 64 43))) (singleton(mkTuple 7 64 43))))
(= (Associations 1) (Associations 0))))

(= (Associations 1) (Associations 0))))
(assert (= (AssociationsForUA 1) (join (UA_U_Reachability 0) (Associations 1))))
(assert (= (AccessRights 1) (join (AssociationsForUA 1) (transpose (AT_Reachability 0)))))


;--------------------------------------------------------------------------------------------------------------------
;STEP2
(assert 
(xor 
(= (obligation1 1) 0) 
(and (member (mkTuple 42 60 43) (AccessRights 1)) (= (obligation1 1) 1))
)
)				
(assert 
(xor 
(= (obligation2 1) 0) 
(and (member (mkTuple 6 59 43) (AccessRights 1)) (= (obligation2 1) 1))
)
)				
(assert 
(xor 
(= (obligation3 1) 0) 
(and (member (mkTuple 12 59 43) (AccessRights 1)) (= (obligation3 1) 1))
)
)				
(assert 
(xor 
(= (obligation4 1) 0) 
(and (member (mkTuple 31 59 43) (AccessRights 1)) (= (obligation4 1) 1))
)
)				
(assert 
(xor 
(= (obligation5 1) 0) 
(and (member (mkTuple 32 60 43) (AccessRights 1)) (= (obligation5 1) 1))
)
)				
(assert 
(xor 
(= (obligation6 1) 0) 
(and (member (mkTuple 35 61 43) (AccessRights 1)) (= (obligation6 1) 1))
)
)				
(assert 
(xor 
(= (obligation7 1) 0) 
(and (member (mkTuple 23 59 43) (AccessRights 1)) (= (obligation7 1) 1))
)
)				
(assert 
(xor 
(= (obligation8 1) 0) 
(and (member (mkTuple 27 59 43) (AccessRights 1)) (= (obligation8 1) 1))
)
)				
(assert 
(xor 
(= (obligation9 1) 0) 
(and (member (mkTuple 30 59 43) (AccessRights 1)) (= (obligation9 1) 1))
)
)				
(assert 
(xor 
(= (obligation10 1) 0) 
(and (member (mkTuple 7 60 43) (AccessRights 1)) (= (obligation10 1) 1))
)
)				
(assert 
(xor 
(= (obligation11 1) 0) 
(and (member (mkTuple 9 61 43) (AccessRights 1)) (= (obligation11 1) 1))
)
)				
(assert 
(xor 
(= (obligation12 1) 0) 
(and (member (mkTuple 9 62 43) (AccessRights 1)) (= (obligation12 1) 1))
)
)				
(assert 
(xor 
(= (obligation13 1) 0) 
(and (member (mkTuple 7 64 43) (AccessRights 1)) (= (obligation13 1) 1))
)
)				


(assert (or 
(and (= (obligation1 1) 1)
(xor (= (Associations 2) 
(setminus (union  (Associations 1) (singleton(mkTuple 6 59 43))) (singleton(mkTuple 42 59 43))))
(= (Associations 2) (Associations 1))))

(and (= (obligation2 1) 1)
(xor (= (Associations 2) 
(setminus (union  (Associations 1) (singleton(mkTuple 12 59 43))) (singleton(mkTuple 6 59 43))))
(= (Associations 2) (Associations 1))))

(and (= (obligation3 1) 1)
(xor (= (Associations 2) 
(setminus (union  (Associations 1) (singleton(mkTuple 31 59 43))) (singleton(mkTuple 12 59 43))))
(= (Associations 2) (Associations 1))))

(and (= (obligation4 1) 1)
(xor (= (Associations 2) 
(setminus (union  (Associations 1) (singleton(mkTuple 32 60 43))) (singleton(mkTuple 31 59 43))))
(= (Associations 2) (Associations 1))))

(and (= (obligation5 1) 1)
(xor (= (Associations 2) 
(setminus (union  (Associations 1) (singleton(mkTuple 35 61 43))) (singleton(mkTuple 32 60 43))))
(= (Associations 2) (Associations 1))))

(and (= (obligation6 1) 1)
(xor (= (Associations 2) 
(setminus (union  (Associations 1) (singleton(mkTuple 23 59 43))) (singleton(mkTuple 35 61 43))))
(= (Associations 2) (Associations 1))))

(and (= (obligation7 1) 1)
(xor (= (Associations 2) 
(setminus (union  (Associations 1) (singleton(mkTuple 27 59 43))) (singleton(mkTuple 23 59 43))))
(= (Associations 2) (Associations 1))))

(and (= (obligation8 1) 1)
(xor (= (Associations 2) 
(setminus (union  (Associations 1) (singleton(mkTuple 30 59 43))) (singleton(mkTuple 27 59 43))))
(= (Associations 2) (Associations 1))))

(and (= (obligation9 1) 1)
(xor (= (Associations 2) 
(setminus (union  (Associations 1) (singleton(mkTuple 7 60 43))) (singleton(mkTuple 30 59 43))))
(= (Associations 2) (Associations 1))))

(and (= (obligation10 1) 1)
(xor (= (Associations 2) 
(setminus (union  (Associations 1) (singleton(mkTuple 9 61 43))) (singleton(mkTuple 7 59 43))))
(= (Associations 2) (Associations 1))))

(and (= (obligation11 1) 1)
(xor (= (Associations 2) 
(setminus (union  (Associations 1) (singleton(mkTuple 9 62 43))) (singleton(mkTuple 9 61 43))))
(= (Associations 2) (Associations 1))))

(and (= (obligation12 1) 1)
(xor (= (Associations 2) 
(setminus (union  (Associations 1) (singleton(mkTuple 7 64 43))) (singleton(mkTuple 9 62 43))))
(= (Associations 2) (Associations 1))))

(and (= (obligation13 1) 1)
(xor (= (Associations 2) 
(setminus (union  (Associations 1) (singleton(mkTuple 9 64 43))) (singleton(mkTuple 7 64 43))))
(= (Associations 2) (Associations 1))))

(= (Associations 2) (Associations 1))))
(assert (= (AssociationsForUA 2) (join (UA_U_Reachability 0) (Associations 2))))
(assert (= (AccessRights 2) (join (AssociationsForUA 2) (transpose (AT_Reachability 0)))))


;--------------------------------------------------------------------------------------------------------------------
;STEP3
(assert 
(xor 
(= (obligation1 2) 0) 
(and (member (mkTuple 42 60 43) (AccessRights 2)) (= (obligation1 2) 1))
)
)				
(assert 
(xor 
(= (obligation2 2) 0) 
(and (member (mkTuple 6 59 43) (AccessRights 2)) (= (obligation2 2) 1))
)
)				
(assert 
(xor 
(= (obligation3 2) 0) 
(and (member (mkTuple 12 59 43) (AccessRights 2)) (= (obligation3 2) 1))
)
)				
(assert 
(xor 
(= (obligation4 2) 0) 
(and (member (mkTuple 31 59 43) (AccessRights 2)) (= (obligation4 2) 1))
)
)				
(assert 
(xor 
(= (obligation5 2) 0) 
(and (member (mkTuple 32 60 43) (AccessRights 2)) (= (obligation5 2) 1))
)
)				
(assert 
(xor 
(= (obligation6 2) 0) 
(and (member (mkTuple 35 61 43) (AccessRights 2)) (= (obligation6 2) 1))
)
)				
(assert 
(xor 
(= (obligation7 2) 0) 
(and (member (mkTuple 23 59 43) (AccessRights 2)) (= (obligation7 2) 1))
)
)				
(assert 
(xor 
(= (obligation8 2) 0) 
(and (member (mkTuple 27 59 43) (AccessRights 2)) (= (obligation8 2) 1))
)
)				
(assert 
(xor 
(= (obligation9 2) 0) 
(and (member (mkTuple 30 59 43) (AccessRights 2)) (= (obligation9 2) 1))
)
)				
(assert 
(xor 
(= (obligation10 2) 0) 
(and (member (mkTuple 7 60 43) (AccessRights 2)) (= (obligation10 2) 1))
)
)				
(assert 
(xor 
(= (obligation11 2) 0) 
(and (member (mkTuple 9 61 43) (AccessRights 2)) (= (obligation11 2) 1))
)
)				
(assert 
(xor 
(= (obligation12 2) 0) 
(and (member (mkTuple 9 62 43) (AccessRights 2)) (= (obligation12 2) 1))
)
)				
(assert 
(xor 
(= (obligation13 2) 0) 
(and (member (mkTuple 7 64 43) (AccessRights 2)) (= (obligation13 2) 1))
)
)				


(assert (or 
(and (= (obligation1 2) 1)
(xor (= (Associations 3) 
(setminus (union  (Associations 2) (singleton(mkTuple 6 59 43))) (singleton(mkTuple 42 59 43))))
(= (Associations 3) (Associations 2))))

(and (= (obligation2 2) 1)
(xor (= (Associations 3) 
(setminus (union  (Associations 2) (singleton(mkTuple 12 59 43))) (singleton(mkTuple 6 59 43))))
(= (Associations 3) (Associations 2))))

(and (= (obligation3 2) 1)
(xor (= (Associations 3) 
(setminus (union  (Associations 2) (singleton(mkTuple 31 59 43))) (singleton(mkTuple 12 59 43))))
(= (Associations 3) (Associations 2))))

(and (= (obligation4 2) 1)
(xor (= (Associations 3) 
(setminus (union  (Associations 2) (singleton(mkTuple 32 60 43))) (singleton(mkTuple 31 59 43))))
(= (Associations 3) (Associations 2))))

(and (= (obligation5 2) 1)
(xor (= (Associations 3) 
(setminus (union  (Associations 2) (singleton(mkTuple 35 61 43))) (singleton(mkTuple 32 60 43))))
(= (Associations 3) (Associations 2))))

(and (= (obligation6 2) 1)
(xor (= (Associations 3) 
(setminus (union  (Associations 2) (singleton(mkTuple 23 59 43))) (singleton(mkTuple 35 61 43))))
(= (Associations 3) (Associations 2))))

(and (= (obligation7 2) 1)
(xor (= (Associations 3) 
(setminus (union  (Associations 2) (singleton(mkTuple 27 59 43))) (singleton(mkTuple 23 59 43))))
(= (Associations 3) (Associations 2))))

(and (= (obligation8 2) 1)
(xor (= (Associations 3) 
(setminus (union  (Associations 2) (singleton(mkTuple 30 59 43))) (singleton(mkTuple 27 59 43))))
(= (Associations 3) (Associations 2))))

(and (= (obligation9 2) 1)
(xor (= (Associations 3) 
(setminus (union  (Associations 2) (singleton(mkTuple 7 60 43))) (singleton(mkTuple 30 59 43))))
(= (Associations 3) (Associations 2))))

(and (= (obligation10 2) 1)
(xor (= (Associations 3) 
(setminus (union  (Associations 2) (singleton(mkTuple 9 61 43))) (singleton(mkTuple 7 59 43))))
(= (Associations 3) (Associations 2))))

(and (= (obligation11 2) 1)
(xor (= (Associations 3) 
(setminus (union  (Associations 2) (singleton(mkTuple 9 62 43))) (singleton(mkTuple 9 61 43))))
(= (Associations 3) (Associations 2))))

(and (= (obligation12 2) 1)
(xor (= (Associations 3) 
(setminus (union  (Associations 2) (singleton(mkTuple 7 64 43))) (singleton(mkTuple 9 62 43))))
(= (Associations 3) (Associations 2))))

(and (= (obligation13 2) 1)
(xor (= (Associations 3) 
(setminus (union  (Associations 2) (singleton(mkTuple 9 64 43))) (singleton(mkTuple 7 64 43))))
(= (Associations 3) (Associations 2))))

(= (Associations 3) (Associations 2))))
(assert (= (AssociationsForUA 3) (join (UA_U_Reachability 0) (Associations 3))))
(assert (= (AccessRights 3) (join (AssociationsForUA 3) (transpose (AT_Reachability 0)))))


;--------------------------------------------------------------------------------------------------------------------
;STEP4
(assert 
(xor 
(= (obligation1 3) 0) 
(and (member (mkTuple 42 60 43) (AccessRights 3)) (= (obligation1 3) 1))
)
)				
(assert 
(xor 
(= (obligation2 3) 0) 
(and (member (mkTuple 6 59 43) (AccessRights 3)) (= (obligation2 3) 1))
)
)				
(assert 
(xor 
(= (obligation3 3) 0) 
(and (member (mkTuple 12 59 43) (AccessRights 3)) (= (obligation3 3) 1))
)
)				
(assert 
(xor 
(= (obligation4 3) 0) 
(and (member (mkTuple 31 59 43) (AccessRights 3)) (= (obligation4 3) 1))
)
)				
(assert 
(xor 
(= (obligation5 3) 0) 
(and (member (mkTuple 32 60 43) (AccessRights 3)) (= (obligation5 3) 1))
)
)				
(assert 
(xor 
(= (obligation6 3) 0) 
(and (member (mkTuple 35 61 43) (AccessRights 3)) (= (obligation6 3) 1))
)
)				
(assert 
(xor 
(= (obligation7 3) 0) 
(and (member (mkTuple 23 59 43) (AccessRights 3)) (= (obligation7 3) 1))
)
)				
(assert 
(xor 
(= (obligation8 3) 0) 
(and (member (mkTuple 27 59 43) (AccessRights 3)) (= (obligation8 3) 1))
)
)				
(assert 
(xor 
(= (obligation9 3) 0) 
(and (member (mkTuple 30 59 43) (AccessRights 3)) (= (obligation9 3) 1))
)
)				
(assert 
(xor 
(= (obligation10 3) 0) 
(and (member (mkTuple 7 60 43) (AccessRights 3)) (= (obligation10 3) 1))
)
)				
(assert 
(xor 
(= (obligation11 3) 0) 
(and (member (mkTuple 9 61 43) (AccessRights 3)) (= (obligation11 3) 1))
)
)				
(assert 
(xor 
(= (obligation12 3) 0) 
(and (member (mkTuple 9 62 43) (AccessRights 3)) (= (obligation12 3) 1))
)
)				
(assert 
(xor 
(= (obligation13 3) 0) 
(and (member (mkTuple 7 64 43) (AccessRights 3)) (= (obligation13 3) 1))
)
)				


(assert (or 
(and (= (obligation1 3) 1)
(xor (= (Associations 4) 
(setminus (union  (Associations 3) (singleton(mkTuple 6 59 43))) (singleton(mkTuple 42 59 43))))
(= (Associations 4) (Associations 3))))

(and (= (obligation2 3) 1)
(xor (= (Associations 4) 
(setminus (union  (Associations 3) (singleton(mkTuple 12 59 43))) (singleton(mkTuple 6 59 43))))
(= (Associations 4) (Associations 3))))

(and (= (obligation3 3) 1)
(xor (= (Associations 4) 
(setminus (union  (Associations 3) (singleton(mkTuple 31 59 43))) (singleton(mkTuple 12 59 43))))
(= (Associations 4) (Associations 3))))

(and (= (obligation4 3) 1)
(xor (= (Associations 4) 
(setminus (union  (Associations 3) (singleton(mkTuple 32 60 43))) (singleton(mkTuple 31 59 43))))
(= (Associations 4) (Associations 3))))

(and (= (obligation5 3) 1)
(xor (= (Associations 4) 
(setminus (union  (Associations 3) (singleton(mkTuple 35 61 43))) (singleton(mkTuple 32 60 43))))
(= (Associations 4) (Associations 3))))

(and (= (obligation6 3) 1)
(xor (= (Associations 4) 
(setminus (union  (Associations 3) (singleton(mkTuple 23 59 43))) (singleton(mkTuple 35 61 43))))
(= (Associations 4) (Associations 3))))

(and (= (obligation7 3) 1)
(xor (= (Associations 4) 
(setminus (union  (Associations 3) (singleton(mkTuple 27 59 43))) (singleton(mkTuple 23 59 43))))
(= (Associations 4) (Associations 3))))

(and (= (obligation8 3) 1)
(xor (= (Associations 4) 
(setminus (union  (Associations 3) (singleton(mkTuple 30 59 43))) (singleton(mkTuple 27 59 43))))
(= (Associations 4) (Associations 3))))

(and (= (obligation9 3) 1)
(xor (= (Associations 4) 
(setminus (union  (Associations 3) (singleton(mkTuple 7 60 43))) (singleton(mkTuple 30 59 43))))
(= (Associations 4) (Associations 3))))

(and (= (obligation10 3) 1)
(xor (= (Associations 4) 
(setminus (union  (Associations 3) (singleton(mkTuple 9 61 43))) (singleton(mkTuple 7 59 43))))
(= (Associations 4) (Associations 3))))

(and (= (obligation11 3) 1)
(xor (= (Associations 4) 
(setminus (union  (Associations 3) (singleton(mkTuple 9 62 43))) (singleton(mkTuple 9 61 43))))
(= (Associations 4) (Associations 3))))

(and (= (obligation12 3) 1)
(xor (= (Associations 4) 
(setminus (union  (Associations 3) (singleton(mkTuple 7 64 43))) (singleton(mkTuple 9 62 43))))
(= (Associations 4) (Associations 3))))

(and (= (obligation13 3) 1)
(xor (= (Associations 4) 
(setminus (union  (Associations 3) (singleton(mkTuple 9 64 43))) (singleton(mkTuple 7 64 43))))
(= (Associations 4) (Associations 3))))

(= (Associations 4) (Associations 3))))
(assert (= (AssociationsForUA 4) (join (UA_U_Reachability 0) (Associations 4))))
(assert (= (AccessRights 4) (join (AssociationsForUA 4) (transpose (AT_Reachability 0)))))


;PROPERTY
(assert (= (obligation7 3) 1))


(check-sat)
(get-value (obligation1))
(get-value (obligation2))
(get-value (obligation3))
(get-value (obligation4))
(get-value (obligation5))
(get-value (obligation6))
(get-value (obligation7))
(get-value (obligation8))
(get-value (obligation9))
(get-value (obligation10))
(get-value (obligation11))
(get-value (obligation12))
(get-value (obligation13))
